language ESSENCE' 1.0
letting n_skills = 5
letting n_workers = 6
letting has_skills = [[0, 1, 0, 0, 1], [0, 0, 0, 1, 0], [0, 1, 1, 1, 0], [0, 0, 1, 1, 0], [0, 1, 0, 1, 1], [1, 1, 0, 1, 1]]
letting n_tasks = 14
letting d = [2,6,1,2,1,4,2,2,2,1,2,3,3,3]
letting rr = [[0,0,0,0,0,0,0,0,0,0,0,0,1,0],[1,0,0,0,1,1,1,0,2,2,1,1,0,0],[0,0,0,0,0,1,0,0,0,0,1,0,0,1],[1,1,0,1,1,0,1,0,0,0,0,1,1,1],[0,0,2,0,0,0,0,1,0,0,0,0,0,0]]
letting suc = [[0, 0, 0, 0, 1, 1, 0, 1, 0, 0, 0, 0, 0, 0], [0, 0, 0, 0, 0, 1, 1, 0, 0, 0, 0, 0, 0, 0], [0, 0, 0, 1, 0, 1, 0, 0, 0, 0, 0, 1, 0, 0], [0, 0, 0, 0, 0, 0, 0, 0, 0, 0, 0, 0, 1, 1], [0, 0, 0, 0, 0, 0, 0, 0, 0, 0, 1, 1, 1, 0], [0, 0, 0, 0, 0, 0, 0, 0, 1, 0, 1, 0, 0, 0], [0, 0, 0, 0, 0, 0, 0, 0, 1, 1, 0, 0, 0, 0], [0, 0, 0, 0, 0, 0, 0, 0, 0, 1, 0, 0, 0, 0], [0, 0, 0, 0, 0, 0, 0, 0, 0, 0, 0, 0, 0, 1], [0, 0, 0, 0, 0, 0, 0, 0, 0, 0, 1, 1, 1, 0], [0, 0, 0, 0, 0, 0, 0, 0, 0, 0, 0, 0, 0, 1], [0, 0, 0, 0, 0, 0, 0, 0, 0, 0, 0, 0, 0, 0], [0, 0, 0, 0, 0, 0, 0, 0, 0, 0, 0, 0, 0, 0], [0, 0, 0, 0, 0, 0, 0, 0, 0, 0, 0, 0, 0, 0]]
